172
0 40 76 91 115 94 83 23 46 61 
119 152 42 13 109 123 103 111 45 33 
135 114 155 133 146 49 7 100 19 6 
126 104 105 22 29 112 43 143 4 52 
159 113 3 27 141 122 99 73 166 130 
56 139 67 151 163 55 62 50 11 118 
31 138 145 89 150 58 1 156 71 18 
144 34 39 12 51 171 165 35 157 64 
63 10 20 124 87 161 86 2 131 14 
17 142 129 96 57 125 59 134 24 5 
77 132 30 148 69 25 98 147 95 102 
137 116 44 47 110 54 70 140 84 80 
75 60 16 101 162 97 160 78 53 15 
36 81 169 117 106 154 120 21 127 48 
32 68 136 74 28 65 85 167 79 107 
92 121 149 72 37 38 153 170 90 108 
164 158 66 168 128 41 93 9 82 26 
8 88 
